
Gurobi 9.0.1 (linux64) logging started Thu Apr 30 21:48:08 2020

Gurobi Optimizer version 9.0.1 build v9.0.1rc0 (linux64)
Optimize a model with 32942 rows, 27380 columns and 605400 nonzeros
Model fingerprint: 0x52ca12ed
Variable types: 0 continuous, 27380 integer (27342 binary)
Coefficient statistics:
  Matrix range     [1e+00, 2e+01]
  Objective range  [2e+00, 1e+02]
  Bounds range     [1e+00, 1e+00]
  RHS range        [1e+00, 1e+00]

User MIP start produced solution with objective 1199 (0.89s)
Loaded user MIP start with objective 1199

Presolve removed 15662 rows and 10107 columns (presolve time = 6s) ...
Presolve removed 15662 rows and 10167 columns (presolve time = 11s) ...
Presolve removed 15704 rows and 10167 columns
Presolve time: 13.56s
Presolved: 17238 rows, 17213 columns, 369660 nonzeros
Variable types: 0 continuous, 17213 integer (17213 binary)

Root simplex log...

Iteration    Objective       Primal Inf.    Dual Inf.      Time
       0    0.0000000e+00   1.580000e+02   0.000000e+00     16s
    2822    5.9007000e+02   3.178020e+03   0.000000e+00     20s
    4684    5.9808006e+02   1.113182e+04   0.000000e+00     25s
    6060    6.0543793e+02   4.667305e+04   0.000000e+00     30s
    7437    6.1365276e+02   2.991149e+03   0.000000e+00     35s
    8813    6.1781804e+02   1.738287e+04   0.000000e+00     40s
   10028    6.2402284e+02   7.095535e+03   0.000000e+00     45s
   11242    6.2606408e+02   1.542392e+03   0.000000e+00     50s
   12373    6.2880684e+02   1.286640e+04   0.000000e+00     55s
   13504    6.3055467e+02   2.487308e+03   0.000000e+00     60s
   14448    6.3265488e+02   3.097160e+03   0.000000e+00     65s
   15359    6.3409607e+02   1.382333e+02   0.000000e+00     70s
   16299    6.3508740e+02   1.307865e+02   0.000000e+00     75s
   17261    6.3574516e+02   5.831302e+01   0.000000e+00     81s
   17592    6.3580085e+02   0.000000e+00   0.000000e+00     83s

Root relaxation: objective 6.358008e+02, 17592 iterations, 67.92 seconds

    Nodes    |    Current Node    |     Objective Bounds      |     Work
 Expl Unexpl |  Obj  Depth IntInf | Incumbent    BestBd   Gap | It/Node Time

     0     0  635.80085    0 1776 1199.00000  635.80085  47.0%     -   89s
     0     0  655.97652    0 1828 1199.00000  655.97652  45.3%     -  147s
     0     0  676.09141    0 1892 1199.00000  676.09141  43.6%     -  204s
     0     0  676.39397    0 1880 1199.00000  676.39397  43.6%     -  216s
     0     0  676.41092    0 1885 1199.00000  676.41092  43.6%     -  218s
     0     0  676.41214    0 1889 1199.00000  676.41214  43.6%     -  220s
     0     0  691.10499    0 1847 1199.00000  691.10499  42.4%     -  275s
     0     0  691.71962    0 1855 1199.00000  691.71962  42.3%     -  293s
     0     0  691.77921    0 1842 1199.00000  691.77921  42.3%     -  298s
     0     0  691.80016    0 1834 1199.00000  691.80016  42.3%     -  301s
     0     0  691.80335    0 1836 1199.00000  691.80335  42.3%     -  302s
     0     0  698.51069    0 1850 1199.00000  698.51069  41.7%     -  363s
     0     0  698.76595    0 1859 1199.00000  698.76595  41.7%     -  373s
     0     0  698.81112    0 1844 1199.00000  698.81112  41.7%     -  378s
     0     0  698.82443    0 1856 1199.00000  698.82443  41.7%     -  380s
     0     0  698.82823    0 1860 1199.00000  698.82823  41.7%     -  382s
     0     0  701.93559    0 1933 1199.00000  701.93559  41.5%     -  416s
     0     0  702.25078    0 1950 1199.00000  702.25078  41.4%     -  439s
     0     0  702.33551    0 1945 1199.00000  702.33551  41.4%     -  445s
     0     0  702.35767    0 1941 1199.00000  702.35767  41.4%     -  448s
     0     0  702.36174    0 1960 1199.00000  702.36174  41.4%     -  450s
     0     0  703.00075    0 1962 1199.00000  703.00075  41.4%     -  474s
     0     0  703.08760    0 1959 1199.00000  703.08760  41.4%     -  482s
     0     0  703.10652    0 1971 1199.00000  703.10652  41.4%     -  486s
     0     0  703.11038    0 1967 1199.00000  703.11038  41.4%     -  488s
     0     0  703.48637    0 1935 1199.00000  703.48637  41.3%     -  517s
     0     0  703.52416    0 1943 1199.00000  703.52416  41.3%     -  523s
     0     0  703.53136    0 1947 1199.00000  703.53136  41.3%     -  526s
     0     0  704.47995    0 1957 1199.00000  704.47995  41.2%     -  546s
     0     0  704.56314    0 1960 1199.00000  704.56314  41.2%     -  553s
     0     0  704.57551    0 1960 1199.00000  704.57551  41.2%     -  556s
     0     0  704.99615    0 1984 1199.00000  704.99615  41.2%     -  575s
     0     0  705.08317    0 1973 1199.00000  705.08317  41.2%     -  583s
     0     0  705.09811    0 1986 1199.00000  705.09811  41.2%     -  586s
     0     0  705.10143    0 1983 1199.00000  705.10143  41.2%     -  588s
     0     0  705.36049    0 1984 1199.00000  705.36049  41.2%     -  604s
     0     0  705.40440    0 1990 1199.00000  705.40440  41.2%     -  623s
     0     0  705.42323    0 1984 1199.00000  705.42323  41.2%     -  626s
     0     0  705.42807    0 1980 1199.00000  705.42807  41.2%     -  629s
     0     0  705.64451    0 1979 1199.00000  705.64451  41.1%     -  644s
     0     0  705.67390    0 1994 1199.00000  705.67390  41.1%     -  649s
     0     0  705.68214    0 1976 1199.00000  705.68214  41.1%     -  652s
     0     0  705.93314    0 1965 1199.00000  705.93314  41.1%     -  667s
     0     0  705.97107    0 1969 1199.00000  705.97107  41.1%     -  672s
     0     0  705.98086    0 1982 1199.00000  705.98086  41.1%     -  674s
     0     0  706.03601    0 1993 1199.00000  706.03601  41.1%     -  687s
     0     0  706.04443    0 1991 1199.00000  706.04443  41.1%     -  691s
     0     0  706.05263    0 1979 1199.00000  706.05263  41.1%     -  700s
     0     0  706.05263    0 1979 1199.00000  706.05263  41.1%     -  710s
     0     2  706.07040    0 1979 1199.00000  706.07040  41.1%     -  887s
     1     3  706.46611    1 1946 1199.00000  706.07040  41.1%  1158  897s
     2     4  725.56045    1 1698 1199.00000  706.46888  41.1%  7212  999s
     3     5  707.27160    2 1945 1199.00000  706.47003  41.1%  5446 1017s
     4     6  721.25024    2 1826 1199.00000  707.27160  41.0%  8281 1149s
     5     7  707.69533    3 1959 1199.00000  707.27160  41.0%  7067 1168s
     6     8  741.39124    3 1649 1199.00000  707.69533  41.0% 10926 1393s
     7     9  707.88532    4 1910 1199.00000  707.69533  41.0%  9490 1400s
     8    10  748.68913    4 1605 1199.00000  707.88532  41.0% 13762 1701s
     9    11  708.03813    5 1924 1199.00000  707.88532  41.0% 12385 1711s
    10    12  750.03260    5 1682 1199.00000  708.03830  40.9% 12795 1826s
    11    13  708.19152    6 1933 1199.00000  708.05075  40.9% 11730 1833s
    12    14  728.60306    7 1729 1199.00000  708.05075  40.9% 11665 1901s
    13    15  708.85749    7 1945 1199.00000  708.05075  40.9% 10938 1914s
    14    16  710.53705    8 1947 1199.00000  708.05075  40.9% 10436 1939s
    15    17  732.81590    8 1668 1199.00000  708.05075  40.9% 10639 2017s
    16    18  710.75321    9 1946 1199.00000  708.05075  40.9% 10045 2024s
    17    19  738.75558   10 1656 1199.00000  708.05075  40.9% 10407 2123s
    18    20  711.08277   10 1936 1199.00000  708.05075  40.9%  9892 2132s
    19    21  738.13167   11 1631 1199.00000  708.05075  40.9% 10793 2318s
    20    22  711.25688   11 1941 1199.00000  708.05075  40.9% 10310 2325s
    21    23  733.78768   12 1680 1199.00000  708.05075  40.9% 10547 2419s
    22    24  711.45338   12 1939 1199.00000  708.05075  40.9% 10109 2427s
    23    25  736.96161   13 1610 1199.00000  708.05075  40.9% 10753 2608s
    24    26  711.77761   13 1932 1199.00000  708.05075  40.9% 10380 2620s
    25    27  731.54625   14 1737 1199.00000  708.05075  40.9% 10642 2725s
    26    28  712.30567   14 1916 1199.00000  708.05075  40.9% 10286 2736s
    27    29  737.73934   15 1650 1199.00000  708.05075  40.9% 10633 2896s
    28    30  712.60621   15 1895 1199.00000  708.05075  40.9% 10323 2906s
    29    31  742.07684   16 1669 1199.00000  708.05075  40.9% 10603 3009s
    30    32  712.85621   16 1897 1199.00000  708.05075  40.9% 10291 3018s
    31    33  713.99259   17 1936 1199.00000  708.05075  40.9% 10027 3035s
    32    34  737.71535   18 1630 1199.00000  708.05075  40.9% 10615 3233s
    33    35  714.16627   18 1904 1199.00000  708.05075  40.9% 10333 3240s
    34    36  744.45462   19 1657 1199.00000  708.05075  40.9% 10498 3336s
    35    37  714.61692   19 1917 1199.00000  708.05075  40.9% 10243 3348s
    36    38  714.76242   20 1920 1199.00000  708.05075  40.9%  9979 3354s
    37    39  745.30000   21 1733 1199.00000  708.05075  40.9% 10337 3513s
    38    40  715.31049   21 1881 1199.00000  708.05075  40.9% 10120 3525s

Cutting planes:
  Cover: 1
  MIR: 79
  StrongCG: 19
  Zero half: 37
  RLT: 528

Explored 39 nodes (454896 simplex iterations) in 3600.03 seconds
Thread count was 1 (of 40 available processors)

Solution count 1: 1199 

Time limit reached
Best objective 1.199000000000e+03, best bound 7.090000000000e+02, gap 40.8674%

User-callback calls 30564, time in user-callback 0.10 sec
